163
10000
1190
4864
1372
951
3119
6507
19
708
739
5702
8374
2256
1280
5136
1577
9158
1960
3340
5128
2333
52
733
4628
684
376
1637
317
9379
3494
1529
7881
3773
1897
6997
777
3742
3982
9007
5718
5928
4173
5619
1626
3669
7858
3283
9305
1164
9144
2122
4010
8393
1740
569
1696
670
2712
434
2263
6349
5648
3288
291
1346
144
4140
2803
7374
1262
2696
8719
6205
6661
2626
3992
3669
4699
1229
6331
2382
856
3131
221
1008
3339
2142
2666
4567
2119
2075
9450
7436
9049
5372
173
2775
5396
7699
7667
1659
7910
2301
5783
3003
7587
550
5
6018
2775
6928
5570
7195
2090
135
641
15
3703
851
323
264
1607
621
7178
4820
3938
4455
2253
6584
695
6691
7642
7618
9267
5860
2805
2314
5589
2413
6292
411
4604
9261
3416
4110
548
2565
2564
434
9149
2223
2029
102
1240
2181
6719
929
4881
4977
1281
9981
520
842
3396
